language Essence 1.3

letting bot_end be [368, 31, 0, 10, 9, 24, 20, 30; int(1..8)]
letting bot_start be [13, 399, 347, 319, 311, 370, 338, 384; int(1..8)]
letting buffer_col be 2
letting buffer_row be 2
letting corridor_size be 1
letting n_shelves_col be 2
letting n_shelves_row be 18
letting shelf_col_size be 2
letting shelf_row_size be 1
